c 
c G(k,n,p) graph
c graph gen seed     : 57
c number of vertices : 20
c max number of edges: 400
c number of classes  : 2
c edge density       : 0.400000
c edge probability   : 0.800000
c data structure     : sparse
c
c           Graph Stats
c number of vertices  : 20
c nonisolated vertices: 20
c number of edges     : 83
c edge density        : 0.436842
c max degree          : 11
c avg degree          : 8.30
c min degree          : 6
p col 20 83
e 1 3
e 1 4
e 1 5
e 1 6
e 1 8
e 1 12
e 1 14
e 1 15
e 1 16
e 1 18
e 1 19
e 2 5
e 2 7
e 2 8
e 2 9
e 2 10
e 2 11
e 2 13
e 2 16
e 2 17
e 2 20
e 3 4
e 3 5
e 3 6
e 3 8
e 3 12
e 3 14
e 3 15
e 3 18
e 3 19
e 4 5
e 4 6
e 4 8
e 4 12
e 4 14
e 4 15
e 4 18
e 4 19
e 4 20
e 5 6
e 5 8
e 5 12
e 5 13
e 5 14
e 5 15
e 5 16
e 5 18
e 5 19
e 6 8
e 6 10
e 6 12
e 6 14
e 6 15
e 6 18
e 6 19
e 7 9
e 7 10
e 7 11
e 7 13
e 7 16
e 7 17
e 7 20
e 8 12
e 8 14
e 8 15
e 8 18
e 8 19
e 8 20
e 9 10
e 9 11
e 9 13
e 9 16
e 9 17
e 9 20
e 10 11
e 10 12
e 10 13
e 10 16
e 10 17
e 10 20
e 11 12
e 11 13
e 11 16
e 11 17
e 11 18
e 11 20
e 12 14
e 12 15
e 12 18
e 12 19
e 12 20
e 13 16
e 13 17
e 13 20
e 14 15
e 14 18
e 14 19
e 15 17
e 15 18
e 15 19
e 15 20
e 16 17
e 16 19
e 16 20
e 17 20
e 18 19
e 18 20
